solution status: optimal solution found
objective value:                     153883.334469399
d11(0,0)                                            1 	(obj:0)
d11(1,1)                                            1 	(obj:0)
d11(1,2)                                            1 	(obj:0)
d11(2,3)                                            1 	(obj:0)
d11(2,4)                                            1 	(obj:0)
d11(2,5)                                            1 	(obj:0)
d11(3,7)                                            1 	(obj:0)
d11(3,9)                                            1 	(obj:0)
d11(3,10)                                           1 	(obj:0)
d11(3,11)                                           1 	(obj:0)
d11(3,12)                                           1 	(obj:0)
d11(3,13)                                           1 	(obj:0)
d11(3,14)                                           1 	(obj:0)
d11(4,15)                                           1 	(obj:0)
d11(4,17)                                           1 	(obj:0)
d11(4,19)                                           1 	(obj:0)
d11(4,29)                                           1 	(obj:0)
d12(4,16)                                           1 	(obj:0)
d12(4,18)                                           1 	(obj:0)
d12(4,20)                                           1 	(obj:0)
d12(4,22)                                           1 	(obj:0)
d12(4,24)                                           1 	(obj:0)
d12(4,26)                                           1 	(obj:0)
d12(4,28)                                           1 	(obj:0)
d12(4,30)                                           1 	(obj:0)
d21(2,3)                                            1 	(obj:0)
d21(3,7)                                            1 	(obj:0)
d21(3,8)                                            1 	(obj:0)
d21(3,9)                                            1 	(obj:0)
d21(3,11)                                           1 	(obj:0)
d21(4,15)                                           1 	(obj:0)
d21(4,16)                                           1 	(obj:0)
d21(4,17)                                           1 	(obj:0)
d21(4,18)                                           1 	(obj:0)
d21(4,19)                                           1 	(obj:0)
d21(4,20)                                           1 	(obj:0)
d21(4,23)                                           1 	(obj:0)
d21(4,24)                                           1 	(obj:0)
y2(4,16)                             1385.48851144895 	(obj:0)
y2(4,18)                             1385.48851144895 	(obj:0)
y2(4,20)                             1385.48851144895 	(obj:0)
y2(4,22)                             1385.48851144895 	(obj:0)
y2(4,24)                             1385.48851144895 	(obj:0)
y2(4,26)                             1385.48851144895 	(obj:0)
y2(4,28)                             1385.48851144895 	(obj:0)
y2(4,30)                             1385.48851144895 	(obj:0)
STE(1,1)                             2551.49999999994 	(obj:0)
STE(0,0)                                         4725 	(obj:0)
STE(1,2)                             4209.74989888793 	(obj:0)
STE(2,3)                             515.250101111096 	(obj:0)
STE(2,4)                             2173.49999999994 	(obj:0)
STE(2,5)                             2173.49999999908 	(obj:0)
STE(2,6)                             3831.74989888793 	(obj:0)
STE(3,7)                            -1520.99979777766 	(obj:0)
STE(3,8)                             137.250101111096 	(obj:0)
STE(3,9)                             137.250101111183 	(obj:0)
STE(3,10)                                      1795.5 	(obj:0)
STE(3,11)                            137.250101110324 	(obj:0)
STE(3,12)                            1795.49999999914 	(obj:0)
STE(3,13)                            1795.49999999917 	(obj:0)
STE(3,14)                            3453.74989888793 	(obj:0)
STE(4,15)                           -1898.99979777766 	(obj:0)
STE(4,16)                           -582.785711901158 	(obj:0)
STE(4,17)                           -240.749898888904 	(obj:0)
STE(4,18)                             1075.4641869876 	(obj:0)
STE(4,19)                           -240.749898888817 	(obj:0)
STE(4,20)                            1075.46418698769 	(obj:0)
STE(4,21)                                      1417.5 	(obj:0)
STE(4,22)                            2733.71408587651 	(obj:0)
STE(4,23)                           -240.749898889676 	(obj:0)
STE(4,24)                            1075.46418698683 	(obj:0)
STE(4,25)                            1417.49999999914 	(obj:0)
STE(4,26)                            2733.71408587565 	(obj:0)
STE(4,27)                                      1417.5 	(obj:0)
STE(4,28)                            2733.71408587568 	(obj:0)
STE(4,29)                            3075.74989888787 	(obj:0)
STE(4,30)                            4391.96398476443 	(obj:0)
y1(3,11)                             1492.42490899988 	(obj:0)
y1(3,13)                             1492.42490899988 	(obj:0)
AVE(1)                               3265.91696791192 	(obj:0)
WB(2)                                3332.74178563731 	(obj:0)
AVE(2)                               3332.74178563731 	(obj:0)
AVE(3)                               3444.11697932125 	(obj:0)
WB(4)                                3399.56511093778 	(obj:0)
AVE(4)                               3399.56511093778 	(obj:0)
WG(1)                                3265.91696791192 	(obj:10)
WG(3)                                3444.11697932125 	(obj:10)
BG(1)                                1056.42154229302 	(obj:10)
BG(2)                                4196.29249897959 	(obj:10)
BG(3)                                752.175519658262 	(obj:10)
BG(4)                                2673.40993877551 	(obj:10)
y1(1,1)                              1615.95000000005 	(obj:0)
y1(1,2)                              123.525091000864 	(obj:0)
y1(2,3)                              1492.42490899996 	(obj:0)
y1(2,5)                              1492.42490899996 	(obj:0)
y1(3,7)                              1492.42490899988 	(obj:0)
y1(3,9)                              1492.42490899988 	(obj:0)
